p cnf 430 1488
-191 150 0
-191 -135 0
-191 102 0
-191 31 0
-191 -86 0
191 -150 135 -102 -31 86 0
-192 -174 0
-192 150 0
-192 -148 0
-192 -109 0
-192 -141 0
192 174 -150 148 109 141 0
-193 115 0
-193 -121 0
-193 35 0
-193 -64 0
-193 137 0
193 -115 121 -35 64 -137 0
-194 -23 0
-194 -117 0
-194 162 0
-194 67 0
-194 106 0
194 23 117 -162 -67 -106 0
-195 -65 0
-195 97 0
-195 -116 0
-195 156 0
-195 182 0
195 65 -97 116 -156 -182 0
191 192 193 194 195 0
-196 97 0
-196 -154 0
-196 66 0
-196 179 0
-196 142 0
196 -97 154 -66 -179 -142 0
-197 -113 0
-197 -75 0
-197 -73 0
-197 -115 0
-197 61 0
197 113 75 73 115 -61 0
-198 159 0
-198 -174 0
-198 -45 0
-198 -67 0
-198 130 0
198 -159 174 45 67 -130 0
-199 -188 0
-199 -135 0
-199 -84 0
-199 -161 0
-199 100 0
199 188 135 84 161 -100 0
-200 164 0
-200 188 0
-200 -119 0
-200 -112 0
-200 -117 0
200 -164 -188 119 112 117 0
196 197 198 199 200 0
-201 144 0
-201 89 0
-201 -30 0
-201 -84 0
-201 102 0
201 -144 -89 30 84 -102 0
-202 150 0
-202 -159 0
-202 146 0
-202 -145 0
-202 -26 0
202 -150 159 -146 145 26 0
-203 -165 0
-203 -150 0
-203 -34 0
-203 -96 0
-203 77 0
203 165 150 34 96 -77 0
-204 -139 0
-204 -59 0
-204 -76 0
-204 156 0
-204 -44 0
204 139 59 76 -156 44 0
-205 -52 0
-205 86 0
-205 -119 0
-205 97 0
-205 92 0
205 52 -86 119 -97 -92 0
201 202 203 204 205 0
-206 -155 0
-206 33 0
-206 22 0
-206 -74 0
-206 -17 0
206 155 -33 -22 74 17 0
-207 108 0
-207 -130 0
-207 -142 0
-207 118 0
-207 -181 0
207 -108 130 142 -118 181 0
-208 97 0
-208 -120 0
-208 11 0
-208 93 0
-208 13 0
208 -97 120 -11 -93 -13 0
-209 -138 0
-209 -118 0
-209 140 0
-209 88 0
-209 -21 0
209 138 118 -140 -88 21 0
-210 190 0
-210 -112 0
-210 79 0
-210 160 0
-210 58 0
210 -190 112 -79 -160 -58 0
206 207 208 209 210 0
-211 38 0
-211 161 0
-211 46 0
-211 -14 0
-211 105 0
211 -38 -161 -46 14 -105 0
-212 134 0
-212 170 0
-212 40 0
-212 173 0
-212 34 0
212 -134 -170 -40 -173 -34 0
-213 -134 0
-213 -15 0
-213 46 0
-213 -94 0
-213 -152 0
213 134 15 -46 94 152 0
-214 -152 0
-214 -24 0
-214 151 0
-214 -182 0
-214 -126 0
214 152 24 -151 182 126 0
-215 78 0
-215 134 0
-215 102 0
-215 -101 0
-215 -105 0
215 -78 -134 -102 101 105 0
211 212 213 214 215 0
-216 87 0
-216 101 0
-216 123 0
-216 -98 0
-216 161 0
216 -87 -101 -123 98 -161 0
-217 -107 0
-217 131 0
-217 73 0
-217 78 0
-217 -103 0
217 107 -131 -73 -78 103 0
-218 61 0
-218 -139 0
-218 55 0
-218 19 0
-218 185 0
218 -61 139 -55 -19 -185 0
-219 80 0
-219 -66 0
-219 34 0
-219 -127 0
-219 125 0
219 -80 66 -34 127 -125 0
-220 -118 0
-220 -55 0
-220 94 0
-220 160 0
-220 13 0
220 118 55 -94 -160 -13 0
216 217 218 219 220 0
-221 -88 0
-221 110 0
-221 -154 0
-221 -53 0
-221 189 0
221 88 -110 154 53 -189 0
-222 112 0
-222 -109 0
-222 -81 0
-222 -41 0
-222 -1 0
222 -112 109 81 41 1 0
-223 50 0
-223 110 0
-223 -129 0
-223 -63 0
-223 134 0
223 -50 -110 129 63 -134 0
-224 -17 0
-224 -90 0
-224 22 0
-224 -190 0
-224 179 0
224 17 90 -22 190 -179 0
-225 -34 0
-225 131 0
-225 -107 0
-225 127 0
-225 -114 0
225 34 -131 107 -127 114 0
221 222 223 224 225 0
-226 -106 0
-226 -117 0
-226 104 0
-226 24 0
-226 -116 0
226 106 117 -104 -24 116 0
-227 -185 0
-227 79 0
-227 -94 0
-227 -41 0
-227 110 0
227 185 -79 94 41 -110 0
-228 -57 0
-228 -126 0
-228 -116 0
-228 -50 0
-228 -54 0
228 57 126 116 50 54 0
-229 53 0
-229 -171 0
-229 113 0
-229 153 0
-229 -54 0
229 -53 171 -113 -153 54 0
-230 2 0
-230 29 0
-230 150 0
-230 -88 0
-230 -145 0
230 -2 -29 -150 88 145 0
226 227 228 229 230 0
-231 -160 0
-231 -1 0
-231 -85 0
-231 177 0
-231 61 0
231 160 1 85 -177 -61 0
-232 -104 0
-232 51 0
-232 166 0
-232 -22 0
-232 -164 0
232 104 -51 -166 22 164 0
-233 70 0
-233 -73 0
-233 -29 0
-233 137 0
-233 -23 0
233 -70 73 29 -137 23 0
-234 -24 0
-234 -150 0
-234 158 0
-234 -49 0
-234 -40 0
234 24 150 -158 49 40 0
-235 -103 0
-235 178 0
-235 -101 0
-235 -129 0
-235 -190 0
235 103 -178 101 129 190 0
231 232 233 234 235 0
-236 16 0
-236 -18 0
-236 134 0
-236 -161 0
-236 170 0
236 -16 18 -134 161 -170 0
-237 65 0
-237 37 0
-237 74 0
-237 21 0
-237 163 0
237 -65 -37 -74 -21 -163 0
-238 -156 0
-238 -190 0
-238 175 0
-238 -23 0
-238 -139 0
238 156 190 -175 23 139 0
-239 129 0
-239 -79 0
-239 -19 0
-239 10 0
-239 -48 0
239 -129 79 19 -10 48 0
-240 5 0
-240 41 0
-240 141 0
-240 -114 0
-240 19 0
240 -5 -41 -141 114 -19 0
236 237 238 239 240 0
-241 -106 0
-241 -113 0
-241 78 0
-241 56 0
-241 -135 0
241 106 113 -78 -56 135 0
-242 84 0
-242 173 0
-242 119 0
-242 -34 0
-242 -70 0
242 -84 -173 -119 34 70 0
-243 67 0
-243 8 0
-243 165 0
-243 63 0
-243 3 0
243 -67 -8 -165 -63 -3 0
-244 -162 0
-244 182 0
-244 -58 0
-244 32 0
-244 -183 0
244 162 -182 58 -32 183 0
-245 10 0
-245 114 0
-245 -26 0
-245 31 0
-245 123 0
245 -10 -114 26 -31 -123 0
241 242 243 244 245 0
-246 70 0
-246 -180 0
-246 179 0
-246 -59 0
-246 -103 0
246 -70 180 -179 59 103 0
-247 -63 0
-247 -142 0
-247 175 0
-247 -73 0
-247 51 0
247 63 142 -175 73 -51 0
-248 -129 0
-248 -95 0
-248 58 0
-248 45 0
-248 -18 0
248 129 95 -58 -45 18 0
-249 56 0
-249 148 0
-249 -84 0
-249 -172 0
-249 28 0
249 -56 -148 84 172 -28 0
-250 79 0
-250 4 0
-250 34 0
-250 60 0
-250 116 0
250 -79 -4 -34 -60 -116 0
246 247 248 249 250 0
-251 -44 0
-251 -149 0
-251 -31 0
-251 95 0
-251 21 0
251 44 149 31 -95 -21 0
-252 -179 0
-252 -19 0
-252 -164 0
-252 -174 0
-252 -116 0
252 179 19 164 174 116 0
-253 -1 0
-253 87 0
-253 171 0
-253 -118 0
-253 -31 0
253 1 -87 -171 118 31 0
-254 190 0
-254 153 0
-254 71 0
-254 48 0
-254 90 0
254 -190 -153 -71 -48 -90 0
-255 181 0
-255 182 0
-255 164 0
-255 -39 0
-255 -27 0
255 -181 -182 -164 39 27 0
251 252 253 254 255 0
-256 44 0
-256 49 0
-256 42 0
-256 129 0
-256 23 0
256 -44 -49 -42 -129 -23 0
-257 20 0
-257 -113 0
-257 -81 0
-257 76 0
-257 -89 0
257 -20 113 81 -76 89 0
-258 -27 0
-258 131 0
-258 -7 0
-258 -119 0
-258 68 0
258 27 -131 7 119 -68 0
-259 8 0
-259 -97 0
-259 24 0
-259 -4 0
-259 -63 0
259 -8 97 -24 4 63 0
-260 68 0
-260 -148 0
-260 179 0
-260 2 0
-260 15 0
260 -68 148 -179 -2 -15 0
256 257 258 259 260 0
-261 -12 0
-261 86 0
-261 -54 0
-261 -64 0
-261 -141 0
261 12 -86 54 64 141 0
-262 57 0
-262 -157 0
-262 176 0
-262 27 0
-262 19 0
262 -57 157 -176 -27 -19 0
-263 -139 0
-263 -147 0
-263 -95 0
-263 169 0
-263 8 0
263 139 147 95 -169 -8 0
-264 69 0
-264 30 0
-264 -54 0
-264 5 0
-264 169 0
264 -69 -30 54 -5 -169 0
-265 120 0
-265 -55 0
-265 53 0
-265 -163 0
-265 -80 0
265 -120 55 -53 163 80 0
261 262 263 264 265 0
-266 68 0
-266 -32 0
-266 119 0
-266 -13 0
-266 -93 0
266 -68 32 -119 13 93 0
-267 57 0
-267 37 0
-267 164 0
-267 -149 0
-267 -146 0
267 -57 -37 -164 149 146 0
-268 188 0
-268 -26 0
-268 -95 0
-268 -124 0
-268 -180 0
268 -188 26 95 124 180 0
-269 145 0
-269 -83 0
-269 22 0
-269 -118 0
-269 -30 0
269 -145 83 -22 118 30 0
-270 -131 0
-270 -98 0
-270 -65 0
-270 -95 0
-270 -115 0
270 131 98 65 95 115 0
266 267 268 269 270 0
-271 126 0
-271 11 0
-271 147 0
-271 -86 0
-271 132 0
271 -126 -11 -147 86 -132 0
-272 154 0
-272 139 0
-272 -140 0
-272 -177 0
-272 -183 0
272 -154 -139 140 177 183 0
-273 30 0
-273 138 0
-273 -127 0
-273 -16 0
-273 -125 0
273 -30 -138 127 16 125 0
-274 -187 0
-274 49 0
-274 -146 0
-274 -51 0
-274 -180 0
274 187 -49 146 51 180 0
-275 69 0
-275 106 0
-275 82 0
-275 178 0
-275 47 0
275 -69 -106 -82 -178 -47 0
271 272 273 274 275 0
-276 1 0
-276 -29 0
-276 -34 0
-276 -106 0
-276 -66 0
276 -1 29 34 106 66 0
-277 -81 0
-277 149 0
-277 113 0
-277 129 0
-277 42 0
277 81 -149 -113 -129 -42 0
-278 -35 0
-278 34 0
-278 23 0
-278 153 0
-278 -103 0
278 35 -34 -23 -153 103 0
-279 -60 0
-279 141 0
-279 -171 0
-279 165 0
-279 -136 0
279 60 -141 171 -165 136 0
-280 146 0
-280 79 0
-280 -173 0
-280 149 0
-280 -18 0
280 -146 -79 173 -149 18 0
276 277 278 279 280 0
-281 -135 0
-281 -82 0
-281 145 0
-281 -181 0
-281 -131 0
281 135 82 -145 181 131 0
-282 -67 0
-282 112 0
-282 87 0
-282 189 0
-282 137 0
282 67 -112 -87 -189 -137 0
-283 190 0
-283 72 0
-283 100 0
-283 52 0
-283 157 0
283 -190 -72 -100 -52 -157 0
-284 -59 0
-284 124 0
-284 17 0
-284 1 0
-284 107 0
284 59 -124 -17 -1 -107 0
-285 154 0
-285 -98 0
-285 39 0
-285 146 0
-285 -30 0
285 -154 98 -39 -146 30 0
281 282 283 284 285 0
-286 -8 0
-286 127 0
-286 -49 0
-286 116 0
-286 177 0
286 8 -127 49 -116 -177 0
-287 -184 0
-287 -118 0
-287 85 0
-287 80 0
-287 115 0
287 184 118 -85 -80 -115 0
-288 -142 0
-288 112 0
-288 151 0
-288 72 0
-288 -44 0
288 142 -112 -151 -72 44 0
-289 -130 0
-289 -15 0
-289 -188 0
-289 177 0
-289 13 0
289 130 15 188 -177 -13 0
-290 128 0
-290 142 0
-290 22 0
-290 -63 0
-290 181 0
290 -128 -142 -22 63 -181 0
286 287 288 289 290 0
-291 -143 0
-291 -66 0
-291 -43 0
-291 58 0
-291 -145 0
291 143 66 43 -58 145 0
-292 15 0
-292 -95 0
-292 -32 0
-292 48 0
-292 -78 0
292 -15 95 32 -48 78 0
-293 30 0
-293 -150 0
-293 83 0
-293 -165 0
-293 69 0
293 -30 150 -83 165 -69 0
-294 27 0
-294 68 0
-294 -30 0
-294 69 0
-294 63 0
294 -27 -68 30 -69 -63 0
-295 59 0
-295 184 0
-295 68 0
-295 75 0
-295 176 0
295 -59 -184 -68 -75 -176 0
291 292 293 294 295 0
-296 156 0
-296 184 0
-296 -107 0
-296 24 0
-296 157 0
296 -156 -184 107 -24 -157 0
-297 -170 0
-297 119 0
-297 -69 0
-297 -114 0
-297 -17 0
297 170 -119 69 114 17 0
-298 32 0
-298 76 0
-298 170 0
-298 149 0
-298 6 0
298 -32 -76 -170 -149 -6 0
-299 -121 0
-299 -19 0
-299 105 0
-299 115 0
-299 -185 0
299 121 19 -105 -115 185 0
-300 115 0
-300 -67 0
-300 140 0
-300 -41 0
-300 -157 0
300 -115 67 -140 41 157 0
296 297 298 299 300 0
-301 190 0
-301 159 0
-301 -100 0
-301 124 0
-301 72 0
301 -190 -159 100 -124 -72 0
-302 -72 0
-302 -73 0
-302 52 0
-302 -17 0
-302 -88 0
302 72 73 -52 17 88 0
-303 -146 0
-303 187 0
-303 107 0
-303 -152 0
-303 -118 0
303 146 -187 -107 152 118 0
-304 100 0
-304 -59 0
-304 12 0
-304 182 0
-304 -20 0
304 -100 59 -12 -182 20 0
-305 -47 0
-305 -23 0
-305 -14 0
-305 98 0
-305 -155 0
305 47 23 14 -98 155 0
301 302 303 304 305 0
-306 -18 0
-306 163 0
-306 78 0
-306 -134 0
-306 145 0
306 18 -163 -78 134 -145 0
-307 -22 0
-307 12 0
-307 -157 0
-307 -152 0
-307 -65 0
307 22 -12 157 152 65 0
-308 -106 0
-308 2 0
-308 -136 0
-308 -50 0
-308 169 0
308 106 -2 136 50 -169 0
-309 -127 0
-309 -10 0
-309 -106 0
-309 -99 0
-309 116 0
309 127 10 106 99 -116 0
-310 12 0
-310 148 0
-310 -36 0
-310 160 0
-310 55 0
310 -12 -148 36 -160 -55 0
306 307 308 309 310 0
-311 -68 0
-311 -53 0
-311 -62 0
-311 69 0
-311 -74 0
311 68 53 62 -69 74 0
-312 -134 0
-312 -15 0
-312 -152 0
-312 -119 0
-312 -41 0
312 134 15 152 119 41 0
-313 -20 0
-313 -81 0
-313 114 0
-313 72 0
-313 150 0
313 20 81 -114 -72 -150 0
-314 -66 0
-314 -91 0
-314 -5 0
-314 -189 0
-314 181 0
314 66 91 5 189 -181 0
-315 104 0
-315 -122 0
-315 -118 0
-315 -158 0
-315 -9 0
315 -104 122 118 158 9 0
311 312 313 314 315 0
-316 169 0
-316 -180 0
-316 -70 0
-316 116 0
-316 -89 0
316 -169 180 70 -116 89 0
-317 -160 0
-317 -179 0
-317 -30 0
-317 -42 0
-317 -177 0
317 160 179 30 42 177 0
-318 -56 0
-318 17 0
-318 -129 0
-318 -23 0
-318 168 0
318 56 -17 129 23 -168 0
-319 -150 0
-319 -16 0
-319 -173 0
-319 77 0
-319 38 0
319 150 16 173 -77 -38 0
-320 109 0
-320 -180 0
-320 72 0
-320 142 0
-320 -156 0
320 -109 180 -72 -142 156 0
316 317 318 319 320 0
-321 -45 0
-321 -63 0
-321 162 0
-321 188 0
-321 -24 0
321 45 63 -162 -188 24 0
-322 64 0
-322 -71 0
-322 43 0
-322 106 0
-322 7 0
322 -64 71 -43 -106 -7 0
-323 111 0
-323 -160 0
-323 25 0
-323 -74 0
-323 29 0
323 -111 160 -25 74 -29 0
-324 147 0
-324 54 0
-324 82 0
-324 -64 0
-324 -52 0
324 -147 -54 -82 64 52 0
-325 101 0
-325 -68 0
-325 -154 0
-325 87 0
-325 3 0
325 -101 68 154 -87 -3 0
321 322 323 324 325 0
-326 -26 0
-326 189 0
-326 178 0
-326 -104 0
-326 -176 0
326 26 -189 -178 104 176 0
-327 -65 0
-327 -189 0
-327 46 0
-327 -83 0
-327 -85 0
327 65 189 -46 83 85 0
-328 -52 0
-328 91 0
-328 112 0
-328 37 0
-328 -138 0
328 52 -91 -112 -37 138 0
-329 172 0
-329 146 0
-329 -18 0
-329 144 0
-329 -182 0
329 -172 -146 18 -144 182 0
-330 -5 0
-330 -177 0
-330 29 0
-330 2 0
-330 72 0
330 5 177 -29 -2 -72 0
326 327 328 329 330 0
-331 134 0
-331 -130 0
-331 -95 0
-331 -135 0
-331 73 0
331 -134 130 95 135 -73 0
-332 -143 0
-332 42 0
-332 -31 0
-332 43 0
-332 15 0
332 143 -42 31 -43 -15 0
-333 -24 0
-333 -73 0
-333 -144 0
-333 -4 0
-333 1 0
333 24 73 144 4 -1 0
-334 31 0
-334 -149 0
-334 -160 0
-334 -97 0
-334 74 0
334 -31 149 160 97 -74 0
-335 -145 0
-335 89 0
-335 -101 0
-335 51 0
-335 46 0
335 145 -89 101 -51 -46 0
331 332 333 334 335 0
-336 -28 0
-336 17 0
-336 -134 0
-336 -19 0
-336 -103 0
336 28 -17 134 19 103 0
-337 154 0
-337 152 0
-337 -41 0
-337 166 0
-337 139 0
337 -154 -152 41 -166 -139 0
-338 -105 0
-338 -139 0
-338 24 0
-338 -143 0
-338 -116 0
338 105 139 -24 143 116 0
-339 148 0
-339 -123 0
-339 -66 0
-339 -92 0
-339 -65 0
339 -148 123 66 92 65 0
-340 39 0
-340 121 0
-340 -71 0
-340 -96 0
-340 188 0
340 -39 -121 71 96 -188 0
336 337 338 339 340 0
-341 125 0
-341 -27 0
-341 -114 0
-341 126 0
-341 -182 0
341 -125 27 114 -126 182 0
-342 60 0
-342 -73 0
-342 157 0
-342 16 0
-342 82 0
342 -60 73 -157 -16 -82 0
-343 -190 0
-343 -139 0
-343 -117 0
-343 -71 0
-343 -16 0
343 190 139 117 71 16 0
-344 190 0
-344 -60 0
-344 161 0
-344 -108 0
-344 25 0
344 -190 60 -161 108 -25 0
-345 49 0
-345 174 0
-345 -135 0
-345 98 0
-345 -11 0
345 -49 -174 135 -98 11 0
341 342 343 344 345 0
-346 -184 0
-346 151 0
-346 128 0
-346 7 0
-346 150 0
346 184 -151 -128 -7 -150 0
-347 25 0
-347 63 0
-347 -144 0
-347 87 0
-347 91 0
347 -25 -63 144 -87 -91 0
-348 47 0
-348 -9 0
-348 74 0
-348 -112 0
-348 -87 0
348 -47 9 -74 112 87 0
-349 -153 0
-349 -183 0
-349 -64 0
-349 36 0
-349 -142 0
349 153 183 64 -36 142 0
-350 69 0
-350 137 0
-350 122 0
-350 -181 0
-350 130 0
350 -69 -137 -122 181 -130 0
346 347 348 349 350 0
-351 157 0
-351 94 0
-351 20 0
-351 -47 0
-351 121 0
351 -157 -94 -20 47 -121 0
-352 159 0
-352 -74 0
-352 -173 0
-352 -151 0
-352 26 0
352 -159 74 173 151 -26 0
-353 155 0
-353 66 0
-353 163 0
-353 -135 0
-353 1 0
353 -155 -66 -163 135 -1 0
-354 -120 0
-354 166 0
-354 -178 0
-354 155 0
-354 -100 0
354 120 -166 178 -155 100 0
-355 -118 0
-355 -190 0
-355 -24 0
-355 181 0
-355 -99 0
355 118 190 24 -181 99 0
351 352 353 354 355 0
-356 -182 0
-356 -97 0
-356 -63 0
-356 185 0
-356 84 0
356 182 97 63 -185 -84 0
-357 64 0
-357 24 0
-357 -94 0
-357 -50 0
-357 -66 0
357 -64 -24 94 50 66 0
-358 -6 0
-358 -135 0
-358 12 0
-358 -38 0
-358 -24 0
358 6 135 -12 38 24 0
-359 87 0
-359 155 0
-359 -70 0
-359 66 0
-359 -86 0
359 -87 -155 70 -66 86 0
-360 -130 0
-360 73 0
-360 136 0
-360 -65 0
-360 -101 0
360 130 -73 -136 65 101 0
356 357 358 359 360 0
-361 94 0
-361 134 0
-361 80 0
-361 84 0
-361 76 0
361 -94 -134 -80 -84 -76 0
-362 -43 0
-362 -18 0
-362 47 0
-362 -176 0
-362 92 0
362 43 18 -47 176 -92 0
-363 -87 0
-363 85 0
-363 164 0
-363 -132 0
-363 -169 0
363 87 -85 -164 132 169 0
-364 -41 0
-364 -26 0
-364 19 0
-364 30 0
-364 -114 0
364 41 26 -19 -30 114 0
-365 -35 0
-365 -81 0
-365 -10 0
-365 50 0
-365 -51 0
365 35 81 10 -50 51 0
361 362 363 364 365 0
-366 -72 0
-366 62 0
-366 -24 0
-366 -133 0
-366 10 0
366 72 -62 24 133 -10 0
-367 3 0
-367 -133 0
-367 78 0
-367 -169 0
-367 -25 0
367 -3 133 -78 169 25 0
-368 91 0
-368 -71 0
-368 -73 0
-368 -166 0
-368 97 0
368 -91 71 73 166 -97 0
-369 44 0
-369 173 0
-369 100 0
-369 -152 0
-369 175 0
369 -44 -173 -100 152 -175 0
-370 -129 0
-370 -130 0
-370 44 0
-370 52 0
-370 -59 0
370 129 130 -44 -52 59 0
366 367 368 369 370 0
-371 115 0
-371 174 0
-371 -12 0
-371 75 0
-371 4 0
371 -115 -174 12 -75 -4 0
-372 -98 0
-372 187 0
-372 63 0
-372 -111 0
-372 36 0
372 98 -187 -63 111 -36 0
-373 106 0
-373 -140 0
-373 -25 0
-373 117 0
-373 23 0
373 -106 140 25 -117 -23 0
-374 49 0
-374 -41 0
-374 -121 0
-374 -63 0
-374 -190 0
374 -49 41 121 63 190 0
-375 -43 0
-375 -121 0
-375 160 0
-375 -174 0
-375 106 0
375 43 121 -160 174 -106 0
371 372 373 374 375 0
-376 -1 0
-376 -165 0
-376 75 0
-376 -34 0
-376 102 0
376 1 165 -75 34 -102 0
-377 -79 0
-377 -88 0
-377 -42 0
-377 64 0
-377 190 0
377 79 88 42 -64 -190 0
-378 44 0
-378 22 0
-378 134 0
-378 20 0
-378 70 0
378 -44 -22 -134 -20 -70 0
-379 19 0
-379 -128 0
-379 -108 0
-379 145 0
-379 124 0
379 -19 128 108 -145 -124 0
-380 -66 0
-380 126 0
-380 80 0
-380 -166 0
-380 -6 0
380 66 -126 -80 166 6 0
376 377 378 379 380 0
-381 159 0
-381 -49 0
-381 -112 0
-381 -111 0
-381 -132 0
381 -159 49 112 111 132 0
-382 -108 0
-382 -115 0
-382 -142 0
-382 29 0
-382 -152 0
382 108 115 142 -29 152 0
-383 -77 0
-383 130 0
-383 -88 0
-383 -183 0
-383 135 0
383 77 -130 88 183 -135 0
-384 146 0
-384 -163 0
-384 116 0
-384 -95 0
-384 -170 0
384 -146 163 -116 95 170 0
-385 42 0
-385 176 0
-385 -43 0
-385 70 0
-385 107 0
385 -42 -176 43 -70 -107 0
381 382 383 384 385 0
-386 -84 0
-386 32 0
-386 -166 0
-386 12 0
-386 68 0
386 84 -32 166 -12 -68 0
-387 58 0
-387 -163 0
-387 39 0
-387 -84 0
-387 -188 0
387 -58 163 -39 84 188 0
-388 114 0
-388 -43 0
-388 177 0
-388 -86 0
-388 -11 0
388 -114 43 -177 86 11 0
-389 166 0
-389 -153 0
-389 -150 0
-389 -63 0
-389 -59 0
389 -166 153 150 63 59 0
-390 59 0
-390 63 0
-390 -91 0
-390 -131 0
-390 77 0
390 -59 -63 91 131 -77 0
386 387 388 389 390 0
-391 -147 0
-391 -157 0
-391 -155 0
-391 -119 0
-391 45 0
391 147 157 155 119 -45 0
-392 -162 0
-392 -12 0
-392 -135 0
-392 -78 0
-392 -54 0
392 162 12 135 78 54 0
-393 120 0
-393 -21 0
-393 60 0
-393 -97 0
-393 -20 0
393 -120 21 -60 97 20 0
-394 -131 0
-394 -140 0
-394 -182 0
-394 -106 0
-394 -122 0
394 131 140 182 106 122 0
-395 -184 0
-395 79 0
-395 187 0
-395 66 0
-395 100 0
395 184 -79 -187 -66 -100 0
391 392 393 394 395 0
-396 -115 0
-396 -41 0
-396 -10 0
-396 80 0
-396 -111 0
396 115 41 10 -80 111 0
-397 -95 0
-397 106 0
-397 -107 0
-397 185 0
-397 -46 0
397 95 -106 107 -185 46 0
-398 170 0
-398 -76 0
-398 -87 0
-398 -158 0
-398 173 0
398 -170 76 87 158 -173 0
-399 10 0
-399 -27 0
-399 131 0
-399 -90 0
-399 -141 0
399 -10 27 -131 90 141 0
-400 27 0
-400 -91 0
-400 130 0
-400 189 0
-400 52 0
400 -27 91 -130 -189 -52 0
396 397 398 399 400 0
-401 -139 0
-401 -42 0
-401 -168 0
-401 -105 0
-401 29 0
401 139 42 168 105 -29 0
-402 -175 0
-402 37 0
-402 6 0
-402 9 0
-402 118 0
402 175 -37 -6 -9 -118 0
-403 145 0
-403 -167 0
-403 183 0
-403 39 0
-403 124 0
403 -145 167 -183 -39 -124 0
-404 -2 0
-404 184 0
-404 -132 0
-404 182 0
-404 79 0
404 2 -184 132 -182 -79 0
-405 -166 0
-405 171 0
-405 71 0
-405 -125 0
-405 -96 0
405 166 -171 -71 125 96 0
401 402 403 404 405 0
-406 -57 0
-406 -122 0
-406 163 0
-406 131 0
-406 83 0
406 57 122 -163 -131 -83 0
-407 45 0
-407 -179 0
-407 -153 0
-407 -113 0
-407 89 0
407 -45 179 153 113 -89 0
-408 133 0
-408 -107 0
-408 171 0
-408 95 0
-408 -83 0
408 -133 107 -171 -95 83 0
-409 111 0
-409 -103 0
-409 13 0
-409 -25 0
-409 49 0
409 -111 103 -13 25 -49 0
-410 110 0
-410 84 0
-410 -41 0
-410 -94 0
-410 -167 0
410 -110 -84 41 94 167 0
406 407 408 409 410 0
-411 -97 0
-411 -107 0
-411 -85 0
-411 4 0
-411 -3 0
411 97 107 85 -4 3 0
-412 123 0
-412 140 0
-412 120 0
-412 126 0
-412 -17 0
412 -123 -140 -120 -126 17 0
-413 108 0
-413 189 0
-413 75 0
-413 -182 0
-413 -152 0
413 -108 -189 -75 182 152 0
-414 174 0
-414 56 0
-414 190 0
-414 -85 0
-414 140 0
414 -174 -56 -190 85 -140 0
-415 -100 0
-415 114 0
-415 -163 0
-415 -59 0
-415 -90 0
415 100 -114 163 59 90 0
411 412 413 414 415 0
-416 -183 0
-416 -172 0
-416 -108 0
-416 -35 0
-416 -185 0
416 183 172 108 35 185 0
-417 -138 0
-417 25 0
-417 167 0
-417 48 0
-417 -72 0
417 138 -25 -167 -48 72 0
-418 45 0
-418 -142 0
-418 71 0
-418 -77 0
-418 -148 0
418 -45 142 -71 77 148 0
-419 8 0
-419 56 0
-419 34 0
-419 111 0
-419 27 0
419 -8 -56 -34 -111 -27 0
-420 68 0
-420 -31 0
-420 25 0
-420 82 0
-420 54 0
420 -68 31 -25 -82 -54 0
416 417 418 419 420 0
-421 77 0
-421 14 0
-421 5 0
-421 -91 0
-421 50 0
421 -77 -14 -5 91 -50 0
-422 114 0
-422 11 0
-422 61 0
-422 55 0
-422 -84 0
422 -114 -11 -61 -55 84 0
-423 -123 0
-423 -5 0
-423 -87 0
-423 126 0
-423 111 0
423 123 5 87 -126 -111 0
-424 -51 0
-424 -136 0
-424 36 0
-424 -112 0
-424 27 0
424 51 136 -36 112 -27 0
-425 141 0
-425 127 0
-425 -95 0
-425 -65 0
-425 -149 0
425 -141 -127 95 65 149 0
421 422 423 424 425 0
-426 183 0
-426 -48 0
-426 41 0
-426 109 0
-426 -140 0
426 -183 48 -41 -109 140 0
-427 21 0
-427 -39 0
-427 -51 0
-427 86 0
-427 113 0
427 -21 39 51 -86 -113 0
-428 129 0
-428 114 0
-428 139 0
-428 110 0
-428 -109 0
428 -129 -114 -139 -110 109 0
-429 78 0
-429 -182 0
-429 -146 0
-429 -143 0
-429 18 0
429 -78 182 146 143 -18 0
-430 149 0
-430 -118 0
-430 97 0
-430 113 0
-430 87 0
430 -149 118 -97 -113 -87 0
426 427 428 429 430 0
